data;

set A := 145988064 588618459 472149881 256182427 347791066 562270647 198873352 797997265 936654251 69316376 184149809 986120770 208625425 984946072 346379309 764291627 934125904 9697316 994837463 732312377 321235053 390904892 7307759 345052109 288944750 138038320 427048018 757792825 161803163 337214308 684510019 225612033 218503872 370271372 69748645 616017691 188056936 943318512 499703614 511501358 597655587 941561257 508787446 170546390 724057792 107511265 156991253 517790942 585330835 436839191 146243975 60921731 799841968 833718872 736202267 472055224 180976173 496423814 357186239 735947356 400584803 775396245 725384134 528733829 59861294 521230536 224142370 915235256 430830376 826790136 310124969 740400173 45288433 235108301 188467027 567772943 293103209 933076226 786481529 251364026 116707060 819974308 976067096 715285243 840743861 841990483 602013452 954255699 172767442 276629632 384252501 991313716;
param T := 23000000000;

end;
